* ; EXPECT: unsat
* (set-logic QF_BV)
* (declare-const v (_ BitVec 6))
* (assert (and (= (bvadd v v) (_ bv53 6)) (not (bvuaddo v v))))
* (check-sat)
* unsat
* #variable= 27 #constraint= 26
+1 x2 +1 x3 -1 x1 >= 0;
+1 x2 -1 x3 +1 x1 >= 0;
+1 x2 = 1;
-1 x2 +1 x3 +1 x1 >= 0;
-1 x2 -1 x3 -1 x1 >= -2;
+1 x9 -1 x3 = 0;
+1 x1 >= 1;
+1 x22 = 0;
+1 x22 -1 x16 = 0;
+1 x8 -1 x27 = 0;
+1 x7 -1 x26 = 0;
+1 x27 -1 x21 = 0;
+1 x6 -1 x25 = 0;
+1 x10 +2 x11 +4 x12 +8 x13 +16 x14 +32 x15 -1 x16 -2 x17 -4 x18 -8 x19 -16 x20 -32 x21 = 0;
+1 x26 -1 x20 = 0;
+1 x10 = 1;
+1 x12 = 1;
+1 x14 = 1;
+1 x11 = 0;
+1 x23 -1 x17 = 0;
+1 x13 = 0;
+1 x24 -1 x18 = 0;
+1 x4 -1 x23 = 0;
+1 x15 = 1;
+1 x25 -1 x19 = 0;
+1 x5 -1 x24 = 0;
